212016745 -1 0
598472177 -2 0
549936136 -3 0
h 4 -5 0
251958128 -6 0
846581676 -7 0
h -8 5 0
239533808 -4 0
716237360 -9 0
780552961 -10 0
135016084 -11 0
105398906 -12 0
h 12 13 0
h 4 -13 0
h 8 11 0
